solution status: optimal solution found
objective value:                                    0
shell_i_$_319                                       1 	(obj:0)
shell_j_$_319                                       1 	(obj:0)
shell_j_$_220                                       1 	(obj:0)
shell_j_$_252                                       1 	(obj:0)
shell_j_$_247                                       1 	(obj:0)
shell_j_$_200                                       1 	(obj:0)
shell_j_$_99                                        1 	(obj:0)
shell_i_$_169                                       1 	(obj:0)
shell_j_$_169                                       1 	(obj:0)
shell_j_$_312                                       1 	(obj:0)
shell_i_$_269                                       1 	(obj:0)
shell_j_$_298                                       1 	(obj:0)
shell_j_$_187                                       1 	(obj:0)
shell_j_$_251                                       1 	(obj:0)
shell_j_$_250                                       1 	(obj:0)
shell_i_$_317                                       1 	(obj:0)
shell_j_$_237                                       1 	(obj:0)
shell_j_$_189                                       1 	(obj:0)
shell_j_$_204                                       1 	(obj:0)
shell_j_$_221                                       1 	(obj:0)
shell_j_$_120                                       1 	(obj:0)
shell_j_$_300                                       1 	(obj:0)
shell_j_$_265                                       1 	(obj:0)
shell_j_$_296                                       1 	(obj:0)
shell_j_$_313                                       1 	(obj:0)
shell_i_$_121                                       1 	(obj:0)
shell_j_$_267                                       1 	(obj:0)
shell_j_$_172                                       1 	(obj:0)
shell_j_$_235                                       1 	(obj:0)
shell_j_$_216                                       1 	(obj:0)
shell_j_$_108                                       1 	(obj:0)
shell_i_$_116                                       1 	(obj:0)
shell_j_$_231                                       1 	(obj:0)
shell_i_$_266                                       1 	(obj:0)
shell_i_$_218                                       1 	(obj:0)
shell_j_$_301                                       1 	(obj:0)
shell_j_$_297                                       1 	(obj:0)
shell_j_$_170                                       1 	(obj:0)
shell_i_$_100                                       1 	(obj:0)
shell_j_$_248                                       1 	(obj:0)
shell_i_$_186                                       1 	(obj:0)
shell_j_$_236                                       1 	(obj:0)
shell_i_$_95                                        1 	(obj:0)
shell_j_$_285                                       1 	(obj:0)
shell_i_$_219                                       1 	(obj:0)
shell_j_$_282                                       1 	(obj:0)
shell_j_$_253                                       1 	(obj:0)
shell_i_$_249                                       1 	(obj:0)
shell_j_$_311                                       1 	(obj:0)
shell_j_$_183                                       1 	(obj:0)
shell_j_$_283                                       1 	(obj:0)
shell_j_$_96                                        1 	(obj:0)
shell_j_$_279                                       1 	(obj:0)
shell_j_$_112                                       1 	(obj:0)
shell_j_$_127                                       1 	(obj:0)
shell_j_$_295                                       1 	(obj:0)
shell_i_$_233                                       1 	(obj:0)
shell_i_$_217                                       1 	(obj:0)
shell_j_$_202                                       1 	(obj:0)
shell_j_$_215                                       1 	(obj:0)
shell_j_$_299                                       1 	(obj:0)
shell_j_$_94                                        1 	(obj:0)
shell_i_$_168                                       1 	(obj:0)
shell_j_$_168                                       1 	(obj:0)
shell_i_$_114                                       1 	(obj:0)
shell_j_$_106                                       1 	(obj:0)
shell_i_$_171                                       1 	(obj:0)
shell_j_$_98                                        1 	(obj:0)
shell_j_$_97                                        1 	(obj:0)
shell_i_$_115                                       1 	(obj:0)
shell_j_$_103                                       1 	(obj:0)
shell_j_$_281                                       1 	(obj:0)
shell_i_$_234                                       1 	(obj:0)
shell_j_$_117                                       1 	(obj:0)
shell_j_$_232                                       1 	(obj:0)
shell_i_$_284                                       1 	(obj:0)
shell_j_$_280                                       1 	(obj:0)
shell_j_$_263                                       1 	(obj:0)
shell_i_$_268                                       1 	(obj:0)
shell_j_$_205                                       1 	(obj:0)
shell_i_$_129                                       1 	(obj:0)
shell_i_$_118                                       1 	(obj:0)
shell_i_$_188                                       1 	(obj:0)
shell_j_$_102                                       1 	(obj:0)
shell_j_$_264                                       1 	(obj:0)
shell_j_$_318                                       1 	(obj:0)
shell_j_$_185                                       1 	(obj:0)
shell_j_$_199                                       1 	(obj:0)
shell_j_$_184                                       1 	(obj:0)
shell_j_$_167                                       1 	(obj:0)
shell_j_$_203                                       1 	(obj:0)
shell_j_$_166                                       1 	(obj:0)
shell_i_$_201                                       1 	(obj:0)
shell_j_$_113                                       1 	(obj:0)
$_100_z                                           -18 	(obj:0)
$_237_z                                           -12 	(obj:0)
$_252_x                                            -4 	(obj:0)
$_248_x                                            -4 	(obj:0)
$_248_y                                            -8 	(obj:0)
$_248_z                                           -14 	(obj:0)
$_252_y                                            -8 	(obj:0)
$_189_x                                            -8 	(obj:0)
$_186_x                                            -8 	(obj:0)
$_186_y                                            -5 	(obj:0)
$_186_z                                           -21 	(obj:0)
$_189_y                                            -8 	(obj:0)
$_189_z                                           -14 	(obj:0)
$_236_y                                            -8 	(obj:0)
$_236_z                                            -9 	(obj:0)
$_169_x                                            -8 	(obj:0)
$_169_y                                            -8 	(obj:0)
$_95_x                                             -8 	(obj:0)
$_95_y                                             -4 	(obj:0)
$_95_z                                            -25 	(obj:0)
$_204_x                                            -4 	(obj:0)
$_204_y                                            -8 	(obj:0)
$_285_x                                            -6 	(obj:0)
$_285_y                                            -8 	(obj:0)
$_285_z                                           -13 	(obj:0)
$_204_z                                            -9 	(obj:0)
$_169_z                                           -23 	(obj:0)
$_219_x                                            -8 	(obj:0)
$_219_y                                            -8 	(obj:0)
$_219_z                                           -16 	(obj:0)
$_252_z                                           -10 	(obj:0)
$_221_x                                            -3 	(obj:0)
$_282_x                                            -5 	(obj:0)
$_282_y                                            -8 	(obj:0)
$_282_z                                           -21 	(obj:0)
$_221_y                                            -8 	(obj:0)
$_221_z                                           -10 	(obj:0)
$_253_x                                            -4 	(obj:0)
$_253_y                                            -8 	(obj:0)
$_253_z                                           -13 	(obj:0)
$_319_y                                            -8 	(obj:0)
$_312_x                                             3 	(obj:0)
$_249_x                                            -8 	(obj:0)
$_249_y                                            -7 	(obj:0)
$_249_z                                           -23 	(obj:0)
$_120_x                                            -5 	(obj:0)
$_120_y                                            -8 	(obj:0)
$_311_x                                            -3 	(obj:0)
$_311_y                                            -8 	(obj:0)
$_311_z                                           -14 	(obj:0)
$_120_z                                           -25 	(obj:0)
$_312_y                                            -8 	(obj:0)
$_183_x                                            -7 	(obj:0)
$_183_y                                            -8 	(obj:0)
$_183_z                                           -17 	(obj:0)
$_312_z                                           -20 	(obj:0)
$_300_x                                            -8 	(obj:0)
$_283_x                                            -1 	(obj:0)
$_283_y                                            -8 	(obj:0)
$_283_z                                           -11 	(obj:0)
$_300_y                                            -8 	(obj:0)
$_300_z                                           -15 	(obj:0)
$_96_x                                             -7 	(obj:0)
$_96_y                                             -8 	(obj:0)
$_96_z                                            -23 	(obj:0)
$_247_x                                            -3 	(obj:0)
$_279_x                                            -5 	(obj:0)
$_279_y                                            -8 	(obj:0)
$_279_z                                           -18 	(obj:0)
$_265_x                                            -6 	(obj:0)
$_265_y                                            -8 	(obj:0)
$_112_x                                            -3 	(obj:0)
$_112_y                                            -8 	(obj:0)
$_112_z                                           -17 	(obj:0)
$_265_z                                           -25 	(obj:0)
$_269_x                                            -8 	(obj:0)
$_127_x                                             1 	(obj:0)
$_127_y                                            -8 	(obj:0)
$_127_z                                           -10 	(obj:0)
$_269_y                                            -8 	(obj:0)
$_296_x                                            -3 	(obj:0)
$_295_x                                            -5 	(obj:0)
$_295_y                                            -8 	(obj:0)
$_295_z                                           -17 	(obj:0)
$_296_y                                            -8 	(obj:0)
$_296_z                                           -15 	(obj:0)
$_233_x                                            -8 	(obj:0)
$_233_y                                            -8 	(obj:0)
$_233_z                                           -24 	(obj:0)
$_269_z                                           -13 	(obj:0)
$_247_y                                            -8 	(obj:0)
$_217_x                                            -8 	(obj:0)
$_217_y                                            -4 	(obj:0)
$_217_z                                           -21 	(obj:0)
$_313_x                                            -5 	(obj:0)
$_313_y                                            -8 	(obj:0)
$_202_x                                            -6 	(obj:0)
$_202_y                                            -8 	(obj:0)
$_202_z                                           -20 	(obj:0)
$_313_z                                           -11 	(obj:0)
$_247_z                                           -18 	(obj:0)
$_215_x                                            -7 	(obj:0)
$_215_y                                            -8 	(obj:0)
$_215_z                                           -16 	(obj:0)
$_298_x                                            -1 	(obj:0)
$_121_x                                            -8 	(obj:0)
$_299_x                                             1 	(obj:0)
$_299_y                                            -8 	(obj:0)
$_299_z                                           -11 	(obj:0)
$_121_y                                            -5 	(obj:0)
$_121_z                                           -15 	(obj:0)
$_94_x                                             -4 	(obj:0)
$_94_y                                             -8 	(obj:0)
$_94_z                                            -18 	(obj:0)
$_298_y                                            -8 	(obj:0)
$_298_z                                           -20 	(obj:0)
$_168_x                                            -8 	(obj:0)
$_168_y                                            -8 	(obj:0)
$_168_z                                           -25 	(obj:0)
$_267_x                                            -1 	(obj:0)
$_267_y                                            -8 	(obj:0)
$_114_x                                            -8 	(obj:0)
$_114_y                                            -4 	(obj:0)
$_114_z                                           -23 	(obj:0)
$_267_z                                           -13 	(obj:0)
$_220_y                                            -8 	(obj:0)
$_106_x                                            -8 	(obj:0)
$_106_y                                            -8 	(obj:0)
$_106_z                                           -21 	(obj:0)
$_220_z                                            -8 	(obj:0)
$_172_x                                            -8 	(obj:0)
$_171_x                                            -8 	(obj:0)
$_171_y                                            -7 	(obj:0)
$_171_z                                           -16 	(obj:0)
$_172_y                                            -8 	(obj:0)
$_172_z                                           -17 	(obj:0)
$_98_x                                             -7 	(obj:0)
$_98_y                                             -8 	(obj:0)
$_98_z                                            -19 	(obj:0)
$_187_x                                            -8 	(obj:0)
$_187_y                                            -8 	(obj:0)
$_97_x                                             -6 	(obj:0)
$_97_y                                             -8 	(obj:0)
$_97_z                                            -19 	(obj:0)
$_235_x                                            -4 	(obj:0)
$_235_y                                            -8 	(obj:0)
$_115_x                                            -8 	(obj:0)
$_115_y                                            -6 	(obj:0)
$_115_z                                           -15 	(obj:0)
$_235_z                                           -12 	(obj:0)
$_187_z                                           -18 	(obj:0)
$_103_x                                            -5 	(obj:0)
$_103_y                                            -8 	(obj:0)
$_103_z                                           -19 	(obj:0)
$_200_x                                            -7 	(obj:0)
$_216_x                                            -6 	(obj:0)
$_281_x                                            -2 	(obj:0)
$_281_y                                            -8 	(obj:0)
$_281_z                                           -21 	(obj:0)
$_216_y                                            -8 	(obj:0)
$_216_z                                           -14 	(obj:0)
$_234_x                                            -8 	(obj:0)
$_234_y                                            -7 	(obj:0)
$_234_z                                           -20 	(obj:0)
$_200_y                                            -8 	(obj:0)
$_251_x                                            -1 	(obj:0)
$_117_x                                            -6 	(obj:0)
$_117_y                                            -8 	(obj:0)
$_117_z                                           -16 	(obj:0)
$_108_x                                            -4 	(obj:0)
$_108_y                                            -8 	(obj:0)
$_232_x                                            -5 	(obj:0)
$_232_y                                            -8 	(obj:0)
$_232_z                                           -14 	(obj:0)
$_108_z                                           -16 	(obj:0)
$_251_y                                            -8 	(obj:0)
$_284_x                                            -8 	(obj:0)
$_284_y                                            -4 	(obj:0)
$_284_z                                           -11 	(obj:0)
$_251_z                                           -15 	(obj:0)
$_116_x                                            -8 	(obj:0)
$_280_x                                            -5 	(obj:0)
$_280_y                                            -8 	(obj:0)
$_280_z                                           -15 	(obj:0)
$_116_y                                            -7 	(obj:0)
$_116_z                                           -15 	(obj:0)
$_263_x                                            -6 	(obj:0)
$_263_y                                            -8 	(obj:0)
$_263_z                                           -18 	(obj:0)
$_200_z                                           -14 	(obj:0)
$_319_z                                           -19 	(obj:0)
$_268_x                                            -8 	(obj:0)
$_268_y                                            -4 	(obj:0)
$_268_z                                           -14 	(obj:0)
$_231_x                                            -7 	(obj:0)
$_231_y                                            -8 	(obj:0)
$_205_x                                            -4 	(obj:0)
$_205_y                                            -8 	(obj:0)
$_205_z                                           -11 	(obj:0)
$_231_z                                           -15 	(obj:0)
$_250_x                                            -7 	(obj:0)
$_129_x                                            -8 	(obj:0)
$_129_y                                            -6 	(obj:0)
$_129_z                                           -11 	(obj:0)
$_250_y                                            -8 	(obj:0)
$_266_x                                            -8 	(obj:0)
$_118_x                                            -8 	(obj:0)
$_118_y                                            -4 	(obj:0)
$_118_z                                           -15 	(obj:0)
$_266_y                                            -8 	(obj:0)
$_266_z                                           -22 	(obj:0)
$_188_x                                            -8 	(obj:0)
$_188_y                                            -8 	(obj:0)
$_188_z                                           -12 	(obj:0)
$_250_z                                           -20 	(obj:0)
$_319_x                                            -8 	(obj:0)
$_102_x                                            -1 	(obj:0)
$_102_y                                            -8 	(obj:0)
$_102_z                                           -21 	(obj:0)
$_218_x                                            -8 	(obj:0)
$_218_y                                            -8 	(obj:0)
$_264_x                                            -4 	(obj:0)
$_264_y                                            -8 	(obj:0)
$_264_z                                           -17 	(obj:0)
$_218_z                                           -20 	(obj:0)
$_99_x                                             -4 	(obj:0)
$_318_x                                            -4 	(obj:0)
$_318_y                                            -8 	(obj:0)
$_318_z                                           -21 	(obj:0)
$_317_x                                            -8 	(obj:0)
$_301_x                                            -5 	(obj:0)
$_185_x                                            -7 	(obj:0)
$_185_y                                            -8 	(obj:0)
$_185_z                                           -21 	(obj:0)
$_301_y                                            -8 	(obj:0)
$_301_z                                           -12 	(obj:0)
$_199_x                                            -6 	(obj:0)
$_199_y                                            -8 	(obj:0)
$_199_z                                           -17 	(obj:0)
$_317_y                                            -5 	(obj:0)
$_317_z                                           -17 	(obj:0)
$_184_x                                            -6 	(obj:0)
$_184_y                                            -8 	(obj:0)
$_184_z                                           -15 	(obj:0)
$_297_x                                             2 	(obj:0)
$_297_y                                            -8 	(obj:0)
$_167_x                                            -7 	(obj:0)
$_167_y                                            -8 	(obj:0)
$_167_z                                           -18 	(obj:0)
$_297_z                                           -24 	(obj:0)
$_99_y                                             -8 	(obj:0)
$_203_x                                            -4 	(obj:0)
$_203_y                                            -8 	(obj:0)
$_203_z                                           -15 	(obj:0)
$_99_z                                            -20 	(obj:0)
$_170_x                                            -4 	(obj:0)
$_166_x                                            -3 	(obj:0)
$_166_y                                            -8 	(obj:0)
$_166_z                                           -16 	(obj:0)
$_170_y                                            -8 	(obj:0)
$_170_z                                           -19 	(obj:0)
$_201_x                                            -8 	(obj:0)
$_201_y                                            -4 	(obj:0)
$_201_z                                           -17 	(obj:0)
$_237_x                                            -2 	(obj:0)
$_237_y                                            -8 	(obj:0)
$_113_x                                             6 	(obj:0)
$_113_y                                            -8 	(obj:0)
$_113_z                                           -20 	(obj:0)
$_100_x                                            -8 	(obj:0)
$_100_y                                            -4 	(obj:0)
